50
    60    56     4     3    89    96     6     4    29    40    97    64    41    34    60    10    52    10    92     9    57    95     7    70    13     4    34    40    45    43    16     8    42    10    16     6    61    92     8     2    23    67    84     9    13     4    51    77    86    62
    10     3     8     4     6     7     9     9    10     2     1     3     5    10     3     2     2     8     7     5     1     4    10     2     5     8     4     5     3     3     5    10     5     3     5     4     1     5    10     5     1    10     9     6     3     6     9    10     7     9
     0   122   197     0    31     0   168     0    59     0     0     0     0     0     0   117     0     0   113    62     0     0     0     0     0   175     0     0     0     0    93   117   183     0   186     0     0   133     0   183     0   132   180     0     0     0     0    15     5     0
